p tw 294 314
1 2
2 113
3 14
4 5
5 6
6 7
7 8
8 12
9 10
10 11
11 207
12 13
13 15
14 25
14 36
15 16
16 17
17 18
18 19
19 20
20 21
21 22
22 23
22 26
23 24
24 207
25 216
26 27
27 28
28 29
29 30
30 31
31 32
32 33
33 34
34 35
35 37
36 47
37 38
38 39
39 40
39 199
40 41
41 42
42 43
43 44
44 45
45 46
46 48
46 199
47 58
48 49
49 50
50 51
51 52
51 199
52 53
53 54
54 55
55 56
56 57
57 59
58 69
59 60
59 64
60 61
61 62
62 63
63 64
64 65
65 66
66 67
67 68
68 70
69 80
70 71
70 75
71 72
72 73
73 74
74 75
75 76
76 77
77 78
78 79
79 81
80 91
81 82
82 83
83 84
84 85
85 86
86 87
87 88
88 89
89 90
89 95
90 92
91 102
91 169
92 93
93 94
94 95
95 96
96 97
97 98
98 99
99 100
100 101
100 109
101 103
102 114
103 104
104 105
105 106
106 107
107 108
108 109
109 110
110 111
111 112
112 115
113 218
114 125
115 116
116 117
117 118
118 119
119 120
120 121
121 122
122 123
123 124
124 126
125 136
126 127
127 128
128 129
129 130
130 131
130 134
131 132
132 133
133 127
134 135
135 137
136 147
136 169
137 138
138 139
139 140
140 141
141 142
142 143
143 144
144 145
145 146
146 148
147 158
148 149
149 150
150 151
151 152
152 153
153 154
154 155
155 156
156 157
157 159
158 169
158 202
159 160
160 161
161 162
162 163
163 164
164 165
165 166
166 167
167 168
168 170
169 180
170 171
171 172
172 173
173 174
174 175
175 176
176 177
177 178
178 179
179 181
180 191
181 182
182 183
183 184
184 185
185 186
186 187
187 188
188 189
189 190
190 192
191 211
192 193
193 194
194 195
195 196
196 197
197 198
198 199
199 200
200 201
201 203
202 213
203 204
204 205
205 206
206 207
207 208
208 209
209 210
210 211
211 212
212 214
213 219
214 215
215 216
216 217
218 229
219 220
220 221
221 222
222 223
223 224
223 226
224 225
225 207
226 227
227 228
228 230
229 240
230 231
231 232
232 233
233 234
234 235
235 236
236 237
237 238
238 239
239 241
240 251
241 242
242 243
243 244
243 246
244 245
245 207
246 247
247 248
248 249
249 250
250 252
250 9
251 262
252 253
253 254
254 255
255 256
255 9
256 257
257 258
258 259
259 260
259 9
260 261
261 263
262 273
263 264
264 265
264 9
265 266
266 267
267 268
268 269
269 270
270 271
271 272
272 274
273 284
274 275
274 277
275 276
276 279
277 278
278 279
279 280
280 281
281 282
282 283
283 285
284 3
285 286
286 287
286 289
287 288
288 207
289 290
290 291
291 292
292 293
293 294
294 4
